data/solutions/planning/wellformed/moderate/sequential/wellformed_moderate_instance79_cplex.sol
Elapsed time: 0.37
Nodes explored: -
Nodes left: -
Relative gap: -
Upper bound: 16443.0
Lower bound: -
C[0]=261.0
C[1]=261.0
C[2]=261.0
C[3]=261.0
C[4]=261.0
C[5]=261.0
y[0]=4
y[1]=5
y[2]=4
y[3]=1
y[4]=1
y[5]=1
y[6]=5
y[7]=3
y[8]=5
y[9]=0
y[10]=2
y[11]=0
y[12]=3
y[13]=5
y[14]=3
y[15]=4
y[16]=5
y[17]=3
y[18]=2
y[19]=3
y[20]=0
y[21]=2
y[22]=0
y[23]=2
y[24]=2
y[25]=1
y[26]=1
y[27]=5
y[28]=3
y[29]=4
