data/solutions/planning/wellformed/moderate/sequential/wellformed_moderate_instance79_cplex.log
Found incumbent of value 1566.000000 after 0.00 sec. (0.02 ticks)
Tried aggregator 2 times.
Aggregator did 2 substitutions.
Reduced MIP has 39 rows, 184 columns, and 372 nonzeros.
Reduced MIP has 180 binaries, 0 generals, 0 SOSs, and 0 indicators.
Presolve time = 0.00 sec. (0.47 ticks)
Probing fixed 0 vars, tightened 19 bounds.
Probing time = 0.00 sec. (0.42 ticks)
Tried aggregator 1 time.
Reduced MIP has 39 rows, 184 columns, and 372 nonzeros.
Reduced MIP has 180 binaries, 4 generals, 0 SOSs, and 0 indicators.
Presolve time = 0.00 sec. (0.26 ticks)
Probing time = 0.00 sec. (0.21 ticks)
Clique table members: 30.
MIP emphasis: balance optimality and feasibility.
MIP search method: dynamic search.
Parallel mode: none, using 1 thread.
Root relaxation solution time = 0.00 sec. (0.30 ticks)

        Nodes                                         Cuts/
   Node  Left     Objective  IInf  Best Integer    Best Bound    ItCnt     Gap

*     0+    0                         1566.0000        0.0000           100.00%
      0     0      261.0000     9     1566.0000      261.0000       43   83.33%
      0     0      261.0000    12     1566.0000       Cuts: 8       54   83.33%
      0     0      261.0000    13     1566.0000       Cuts: 7       64   83.33%
*     0+    0                          399.0000      261.0000            34.59%
*     0+    0                          288.0000      261.0000             9.37%
      0     2      261.0000     7      288.0000      261.0000       64    9.37%
Elapsed time = 0.01 sec. (6.89 ticks, tree = 0.01 MB, solutions = 3)
*    40+   33                          284.0000      261.0000             8.10%
*    50+   33                          276.0000      261.0000             5.43%
*   150+  108                          273.0000      261.0000             4.40%
*   150+  108                          271.0000      261.0000             3.69%
*   150+  104                          265.0000      261.0000             1.51%
*   150+  104                          264.0000      261.0000             1.14%
   1217   409      261.0000     6      264.0000      261.0000     3877    1.14%
   1218   410      261.0000     6      264.0000      261.0000     3878    1.14%
   1219   411      261.0000     6      264.0000      261.0000     3882    1.14%
   1220   411      261.0000     6      264.0000      261.0000     3883    1.14%
   1221   411      261.0000     6      264.0000      261.0000     3885    1.14%
   1222   407        cutoff            264.0000      261.0000     3887    1.14%
   1223   403        cutoff            264.0000      261.0000     3888    1.14%
   1224   403      261.0000     6      264.0000      261.0000     3889    1.14%
   1225   403      261.0000     6      264.0000      261.0000     3891    1.14%
*  1387     1      integral     0      261.0000      261.0000     4075    0.00%

Root node processing (before b&c):
  Real time             =    0.01 sec. (6.90 ticks)
Sequential b&c:
  Real time             =    0.34 sec. (285.49 ticks)
                          ------------
Total (root+branch&cut) =    0.35 sec. (292.39 ticks)
2 of 10 MIP starts provided solutions.
MIP start 'm1' defined initial solution with objective 261.0000.
Tried aggregator 2 times.
MIP Presolve eliminated 1 rows and 0 columns.
Aggregator did 1 substitutions.
Reduced MIP has 40 rows, 185 columns, and 374 nonzeros.
Reduced MIP has 180 binaries, 0 generals, 0 SOSs, and 0 indicators.
Presolve time = 0.00 sec. (0.39 ticks)
Probing time = 0.00 sec. (0.20 ticks)
Cover probing fixed 0 vars, tightened 3 bounds.
Tried aggregator 1 time.
Reduced MIP has 40 rows, 185 columns, and 374 nonzeros.
Reduced MIP has 180 binaries, 5 generals, 0 SOSs, and 0 indicators.
Presolve time = 0.00 sec. (0.26 ticks)
Probing time = 0.00 sec. (0.18 ticks)
Clique table members: 30.
MIP emphasis: balance optimality and feasibility.
MIP search method: dynamic search.
Parallel mode: none, using 1 thread.
Root relaxation solution time = 0.00 sec. (0.17 ticks)

        Nodes                                         Cuts/
   Node  Left     Objective  IInf  Best Integer    Best Bound    ItCnt     Gap

*     0+    0                          261.0000        0.0000           100.00%
      0     0        cutoff            261.0000                     17    0.00%

Root node processing (before b&c):
  Real time             =    0.00 sec. (1.63 ticks)
Sequential b&c:
  Real time             =    0.00 sec. (0.00 ticks)
                          ------------
Total (root+branch&cut) =    0.00 sec. (1.63 ticks)
1 of 1 MIP starts provided solutions.
MIP start 'm1' defined initial solution with objective 261.0000.
Tried aggregator 2 times.
MIP Presolve eliminated 3 rows and 0 columns.
Aggregator did 1 substitutions.
Reduced MIP has 40 rows, 185 columns, and 374 nonzeros.
Reduced MIP has 180 binaries, 0 generals, 0 SOSs, and 0 indicators.
Presolve time = 0.00 sec. (0.39 ticks)
Probing time = 0.00 sec. (0.20 ticks)
Cover probing fixed 0 vars, tightened 3 bounds.
Tried aggregator 1 time.
Reduced MIP has 40 rows, 185 columns, and 374 nonzeros.
Reduced MIP has 180 binaries, 5 generals, 0 SOSs, and 0 indicators.
Presolve time = 0.00 sec. (0.26 ticks)
Probing time = 0.00 sec. (0.18 ticks)
Clique table members: 30.
MIP emphasis: balance optimality and feasibility.
MIP search method: dynamic search.
Parallel mode: none, using 1 thread.
Root relaxation solution time = 0.00 sec. (0.17 ticks)

        Nodes                                         Cuts/
   Node  Left     Objective  IInf  Best Integer    Best Bound    ItCnt     Gap

*     0+    0                          261.0000        0.0000           100.00%
      0     0        cutoff            261.0000                     17    0.00%

Root node processing (before b&c):
  Real time             =    0.00 sec. (1.60 ticks)
Sequential b&c:
  Real time             =    0.00 sec. (0.00 ticks)
                          ------------
Total (root+branch&cut) =    0.00 sec. (1.60 ticks)
1 of 1 MIP starts provided solutions.
MIP start 'm1' defined initial solution with objective 261.0000.
Tried aggregator 2 times.
MIP Presolve eliminated 6 rows and 0 columns.
Aggregator did 1 substitutions.
Reduced MIP has 40 rows, 185 columns, and 374 nonzeros.
Reduced MIP has 180 binaries, 0 generals, 0 SOSs, and 0 indicators.
Presolve time = 0.00 sec. (0.40 ticks)
Probing time = 0.00 sec. (0.20 ticks)
Cover probing fixed 0 vars, tightened 3 bounds.
Tried aggregator 1 time.
Reduced MIP has 40 rows, 185 columns, and 374 nonzeros.
Reduced MIP has 180 binaries, 5 generals, 0 SOSs, and 0 indicators.
Presolve time = 0.00 sec. (0.26 ticks)
Probing time = 0.00 sec. (0.18 ticks)
Clique table members: 30.
MIP emphasis: balance optimality and feasibility.
MIP search method: dynamic search.
Parallel mode: none, using 1 thread.
Root relaxation solution time = 0.00 sec. (0.19 ticks)

        Nodes                                         Cuts/
   Node  Left     Objective  IInf  Best Integer    Best Bound    ItCnt     Gap

*     0+    0                          261.0000        0.0000           100.00%
      0     0        cutoff            261.0000                     22    0.00%

Root node processing (before b&c):
  Real time             =    0.00 sec. (1.62 ticks)
Sequential b&c:
  Real time             =    0.00 sec. (0.00 ticks)
                          ------------
Total (root+branch&cut) =    0.00 sec. (1.62 ticks)
1 of 1 MIP starts provided solutions.
MIP start 'm1' defined initial solution with objective 261.0000.
Tried aggregator 2 times.
MIP Presolve eliminated 10 rows and 0 columns.
Aggregator did 1 substitutions.
Reduced MIP has 40 rows, 185 columns, and 374 nonzeros.
Reduced MIP has 180 binaries, 0 generals, 0 SOSs, and 0 indicators.
Presolve time = 0.00 sec. (0.40 ticks)
Probing time = 0.00 sec. (0.20 ticks)
Cover probing fixed 0 vars, tightened 3 bounds.
Tried aggregator 1 time.
Reduced MIP has 40 rows, 185 columns, and 374 nonzeros.
Reduced MIP has 180 binaries, 5 generals, 0 SOSs, and 0 indicators.
Presolve time = 0.00 sec. (0.26 ticks)
Probing time = 0.00 sec. (0.18 ticks)
Clique table members: 30.
MIP emphasis: balance optimality and feasibility.
MIP search method: dynamic search.
Parallel mode: none, using 1 thread.
Root relaxation solution time = 0.00 sec. (0.23 ticks)

        Nodes                                         Cuts/
   Node  Left     Objective  IInf  Best Integer    Best Bound    ItCnt     Gap

*     0+    0                          261.0000        0.0000           100.00%
      0     0        cutoff            261.0000                     31    0.00%

Root node processing (before b&c):
  Real time             =    0.00 sec. (1.66 ticks)
Sequential b&c:
  Real time             =    0.00 sec. (0.00 ticks)
                          ------------
Total (root+branch&cut) =    0.00 sec. (1.66 ticks)
1 of 1 MIP starts provided solutions.
MIP start 'm1' defined initial solution with objective 261.0000.
Tried aggregator 2 times.
MIP Presolve eliminated 15 rows and 0 columns.
Aggregator did 1 substitutions.
Reduced MIP has 40 rows, 185 columns, and 374 nonzeros.
Reduced MIP has 180 binaries, 0 generals, 0 SOSs, and 0 indicators.
Presolve time = 0.00 sec. (0.40 ticks)
Probing time = 0.00 sec. (0.20 ticks)
Cover probing fixed 0 vars, tightened 3 bounds.
Tried aggregator 1 time.
Reduced MIP has 40 rows, 185 columns, and 374 nonzeros.
Reduced MIP has 180 binaries, 5 generals, 0 SOSs, and 0 indicators.
Presolve time = 0.00 sec. (0.26 ticks)
Probing time = 0.00 sec. (0.18 ticks)
Clique table members: 30.
MIP emphasis: balance optimality and feasibility.
MIP search method: dynamic search.
Parallel mode: none, using 1 thread.
Root relaxation solution time = 0.00 sec. (0.14 ticks)

        Nodes                                         Cuts/
   Node  Left     Objective  IInf  Best Integer    Best Bound    ItCnt     Gap

*     0+    0                          261.0000        0.0000           100.00%
      0     0        cutoff            261.0000                      7    0.00%

Root node processing (before b&c):
  Real time             =    0.00 sec. (1.58 ticks)
Sequential b&c:
  Real time             =    0.00 sec. (0.00 ticks)
                          ------------
Total (root+branch&cut) =    0.00 sec. (1.58 ticks)
